(set-info :smt-lib-version 2.6)
(set-logic QF_FP)
(set-option :produce-models true)
(set-info :source |Random FP created by PyMPF|)
(set-info :license |https://www.gnu.org/licenses/gpl-3.0.html|)
(set-info :category random)
(set-info :status sat)
(declare-const x Float32)
(assert (= x ((_ to_fp 8 24) #x09ED9A8D)))
;; x should be Float32(0x09ED9A8D [Rational(15571597, 2722258935367507707706996859454145691648), 0.000000])

(declare-const y Float32)
(assert (= y (fp #b0 #b10010100 #b11010001011001000001010)))
;; y should be Float32(0x4A68B20A [Rational(7624965, 2), 3812482.500000])

(declare-const z Float32)
(assert (= z (fp #b1 #b10101001 #b00000110111110000100111)))
;; z should be Float32(0xD4837C27 [Rational(-4517789171712), -4517789171712.000000])

(declare-const result Float32)
(assert (= result (fp.fma RNE x y z)))
(assert (= result ((_ to_fp 8 24) #xD4837C27)))
(check-sat)
(exit)
